88	100	8	35	55	27	3	91	81	61
97	53	75	29	92	26	19	96	25	94
43	70	69	87	78	30	62	50	97	85
76	82	56	22	14	63	53	16	86	51
49	52	30	80	16	4	11	9	46	86
83	44	87	99	57	19	93	54	95	43
29	41	49	61	66	77	59	43	6	19
17	14	10	77	60	67	96	4	40	35
82	89	20	99	97	42	79	69	62	28
76	53	86	67	70	15	87	71	31	50
